RT is False
Default write of storage_offers_DA.csv just to have a file (but constraint should be inactive)
Reading model...
...model read.
creating competitive generators file...
...competitive generators recorded.
Loading data...
.. day-ahead data with real-time VRE data read.
Compiling instance...
...instance created.
Creating Offer Mitigation (model will solve as dispatch if TRUE)...
...storage offer mitigation file created
Converting model to MPEC...
...converted
NOTE: initial MIP solve with only storage competitive to get feasible solution
Solving...

Welcome to IBM(R) ILOG(R) CPLEX(R) Interactive Optimizer 12.9.0.0
  with Simplex, Mixed Integer & Barrier Optimizers
5725-A06 5725-A29 5724-Y48 5724-Y49 5724-Y54 5724-Y55 5655-Y21
Copyright IBM Corp. 1988, 2019.  All Rights Reserved.

Type 'help' for a list of available commands.
Type 'help' followed by a command name for more
information on commands.

CPLEX> Logfile 'cplex.log' closed.
Logfile 'C:\Users\llavin\Desktop\test826\logs\tmp_pm3v68a.cplex.log' open.
CPLEX> New value for parallel optimization mode: -1
CPLEX> New value for mixed integer optimality gap tolerance: 0.01
CPLEX> New value for feasibility tolerance: 1e-09
CPLEX> New value for deterministic time limit in ticks: 100000
CPLEX> Problem 'C:\Users\llavin\Desktop\test826\logs\tmpt7zvz3f7.pyomo.lp' read.
Read time = 0.23 sec. (14.72 ticks)
CPLEX> Problem name         : C:\Users\llavin\Desktop\test826\logs\tmpt7zvz3f7.pyomo.lp
Objective sense      : Maximize
Variables            :   53805  [Nneg: 1,  Box: 22000,  Free: 4464,
                                 Binary: 27340]
Objective nonzeros   :    9029
Linear constraints   :  123205  [Less: 41346,  Greater: 59096,  Equal: 22763]
  Nonzeros           :  291753
  RHS nonzeros       :   67495

Variables            : Min LB: -5000.000        Max UB: 1000000.       
Objective nonzeros   : Min   : 0.07500000       Max   : 2500.000       
Linear constraints   :
  Nonzeros           : Min   : 0.07500000       Max   : 1000000.       
  RHS nonzeros       : Min   : 0.07500000       Max   : 1000000.       
CPLEX> CPXPARAM_Parallel                                -1
CPXPARAM_Simplex_Tolerances_Feasibility          1.0000000000000001e-09
CPXPARAM_DetTimeLimit                            100000
CPXPARAM_MIP_Tolerances_MIPGap                   0.01
Tried aggregator 3 times.
MIP Presolve eliminated 88696 rows and 19020 columns.
MIP Presolve added 3377 rows and 0 columns.
MIP Presolve modified 24818 coefficients.
Aggregator did 12969 substitutions.
Reduced MIP has 24917 rows, 21260 columns, and 71078 nonzeros.
Reduced MIP has 8401 binaries, 0 generals, 0 SOSs, and 0 indicators.
Presolve time = 0.28 sec. (168.03 ticks)
Probing fixed 383 vars, tightened 3808 bounds.
Probing time = 0.08 sec. (18.62 ticks)
Tried aggregator 2 times.
MIP Presolve eliminated 865 rows and 768 columns.
MIP Presolve modified 3034 coefficients.
Aggregator did 36 substitutions.
Reduced MIP has 24016 rows, 20456 columns, and 68462 nonzeros.
Reduced MIP has 8018 binaries, 0 generals, 0 SOSs, and 0 indicators.
Presolve time = 0.11 sec. (89.21 ticks)
Probing fixed 0 vars, tightened 231 bounds.
Probing time = 0.14 sec. (22.11 ticks)
Clique table members: 44695.
MIP emphasis: balance optimality and feasibility.
MIP search method: dynamic search.
Parallel mode: opportunistic, using up to 32 threads.
Root relaxation solution time = 0.47 sec. (667.87 ticks)

        Nodes                                         Cuts/
   Node  Left     Objective  IInf  Best Integer    Best Bound    ItCnt     Gap

      0     0     3988.6339   124                   3988.6339     5829         
      0     0     3988.6339     1                 Flowcuts: 1     5830         
      0     0     3988.6339     3                   Covers: 1     5833         
      0    12    infeasible                           Cuts: 3     6259         
Elapsed time = 4.23 sec. (2304.68 ticks, tree = 0.02 MB, solutions = 1)
*    76    19      integral     0     3933.8046     3933.8046     6460    0.00%

Cover cuts applied:  2
Implied bound cuts applied:  1
Mixed integer rounding cuts applied:  1

Root node processing (before b&c):
  Real time             =    2.92 sec. (2293.76 ticks)
Parallel b&c, 32 threads:
  Real time             =    1.55 sec. (165.84 ticks)
  Sync time (average)   =    0.66 sec.
  Wait time (average)   =    0.00 sec.
                          ------------
Total (root+branch&cut) =    4.47 sec. (2459.60 ticks)

Solution pool: 1 solution saved.

MIP - Integer optimal solution:  Objective =  3.9338046402e+03
Solution time =    4.50 sec.  Iterations = 7301  Nodes = 77
Deterministic time = 2459.76 ticks  (546.61 ticks/sec)

CPLEX> Incumbent solution written to file 'C:\Users\llavin\Desktop\test826\logs\tmpjneul73f.cplex.sol'.
CPLEX> NOTE: no warmstart specified for MIP iteration, default behavior is true
NOTE: resolving with all competitive generators using storage-only solution to warmstart
Solving...

Welcome to IBM(R) ILOG(R) CPLEX(R) Interactive Optimizer 12.9.0.0
  with Simplex, Mixed Integer & Barrier Optimizers
5725-A06 5725-A29 5724-Y48 5724-Y49 5724-Y54 5724-Y55 5655-Y21
Copyright IBM Corp. 1988, 2019.  All Rights Reserved.

Type 'help' for a list of available commands.
Type 'help' followed by a command name for more
information on commands.

CPLEX> Logfile 'cplex.log' closed.
Logfile 'C:\Users\llavin\Desktop\test826\logs\tmp8gwlmxf8.cplex.log' open.
CPLEX> New value for parallel optimization mode: -1
CPLEX> New value for mixed integer optimality gap tolerance: 0.01
CPLEX> New value for feasibility tolerance: 1e-09
CPLEX> New value for deterministic time limit in ticks: 100000
CPLEX> Problem 'C:\Users\llavin\Desktop\test826\logs\tmpnk5qv99w.pyomo.lp' read.
Read time = 0.23 sec. (14.74 ticks)
CPLEX> MIP start file 'C:\Users\llavin\Desktop\test826\logs\tmpj7bi56xg.cplex.mst' read.
CPLEX> Problem name         : C:\Users\llavin\Desktop\test826\logs\tmpnk5qv99w.pyomo.lp
Objective sense      : Maximize
Variables            :   54525  [Nneg: 1,  Box: 22720,  Free: 4464,
                                 Binary: 27340]
Objective nonzeros   :    9725
Linear constraints   :  123205  [Less: 41346,  Greater: 59096,  Equal: 22763]
  Nonzeros           :  291753
  RHS nonzeros       :   67495

Variables            : Min LB: -5000.000        Max UB: 1000000.       
Objective nonzeros   : Min   : 0.07500000       Max   : 2500.000       
Linear constraints   :
  Nonzeros           : Min   : 0.07500000       Max   : 1000000.       
  RHS nonzeros       : Min   : 0.07500000       Max   : 1000000.       
CPLEX> CPXPARAM_Parallel                                -1
CPXPARAM_Simplex_Tolerances_Feasibility          1.0000000000000001e-09
CPXPARAM_DetTimeLimit                            100000
CPXPARAM_MIP_Tolerances_MIPGap                   0.01
Warning:  No solution found from 1 MIP starts.
Retaining values of one MIP start for possible repair.
Tried aggregator 3 times.
MIP Presolve eliminated 88696 rows and 19740 columns.
MIP Presolve added 3377 rows and 0 columns.
MIP Presolve modified 24818 coefficients.
Aggregator did 12969 substitutions.
Reduced MIP has 24917 rows, 21260 columns, and 71078 nonzeros.
Reduced MIP has 8401 binaries, 0 generals, 0 SOSs, and 0 indicators.
Presolve time = 0.28 sec. (168.38 ticks)
Probing fixed 383 vars, tightened 3808 bounds.
Probing time = 0.06 sec. (18.62 ticks)
Tried aggregator 2 times.
MIP Presolve eliminated 865 rows and 768 columns.
MIP Presolve modified 3034 coefficients.
Aggregator did 36 substitutions.
Reduced MIP has 24016 rows, 20456 columns, and 68462 nonzeros.
Reduced MIP has 8018 binaries, 0 generals, 0 SOSs, and 0 indicators.
Presolve time = 0.11 sec. (89.22 ticks)
Probing fixed 0 vars, tightened 231 bounds.
Probing time = 0.14 sec. (22.11 ticks)
Clique table members: 44695.
MIP emphasis: balance optimality and feasibility.
MIP search method: dynamic search.
Parallel mode: opportunistic, using up to 32 threads.
Root relaxation solution time = 0.53 sec. (702.25 ticks)

        Nodes                                         Cuts/
   Node  Left     Objective  IInf  Best Integer    Best Bound    ItCnt     Gap

      0     0    55359.7815   135                  55359.7815     6179         
      0     0    55090.0061    68                    Cuts: 82     6278         
      0     0    54976.5800    53                    Cuts: 73     6327         
      0     0    54967.4748    56                    Cuts: 25     6345         
      0     0    54967.4478    57                Flowcuts: 14     6348         
      0     0    54967.3937    53                 Flowcuts: 8     6350         
Repair heuristic found nothing.
      0    39    44375.6691    44                    Cuts: 15     7279         
Elapsed time = 5.89 sec. (3087.62 ticks, tree = 0.02 MB, solutions = 0)
    470    97    53600.6007    31                  54797.6515     8236         
*   503+  302                        45619.7778    54797.6515            20.12%
*   681+  316                        51805.3794    54797.6515             5.78%
    998   337    54740.3983    40    51805.3794    54797.6515    18760    5.78%
   1408   498    52996.2607    13    51805.3794    54785.4818    24733    5.75%
*  1617   498      integral     0    53968.4208    54769.7000    27719    1.48%
   1993   417    54616.8748    34    53968.4208    54767.2093    30956    1.48%
   2575   546    54165.5703    31    53968.4208    54766.2467    40053    1.48%
   2808   615    54484.3720    28    53968.4208    54766.2467    43775    1.48%

Cover cuts applied:  13
Implied bound cuts applied:  16
Flow cuts applied:  130
Mixed integer rounding cuts applied:  6
Gomory fractional cuts applied:  4

Root node processing (before b&c):
  Real time             =    4.31 sec. (3047.98 ticks)
Parallel b&c, 32 threads:
  Real time             =    8.48 sec. (1536.09 ticks)
  Sync time (average)   =    1.58 sec.
  Wait time (average)   =    0.00 sec.
                          ------------
Total (root+branch&cut) =   12.80 sec. (4584.08 ticks)

Solution pool: 5 solutions saved.

MIP - Integer optimal, tolerance (0.01/1e-06):  Objective =  5.3968420825e+04
Current MIP best bound =  5.4507065815e+04 (gap = 538.645, 1.00%)
Solution time =   12.80 sec.  Iterations = 45677  Nodes = 2810 (606)
Deterministic time = 4584.23 ticks  (358.23 ticks/sec)

CPLEX> Incumbent solution written to file 'C:\Users\llavin\Desktop\test826\logs\tmp17c172mm.cplex.sol'.
CPLEX> Exporting results... 
